qbf_easy_train/easy_1819_UNSAT.qdimacs
p cnf 30 79
a 1 18 29 0
e 2 3 4 5 6 7 8 9 10 11 12 13 14 15 16 17 19 20 21 22 23 24 25 26 27 28 30 0
-3 1 0
-3 -2 0
-1 2 3 0
5 -3 0
5 -4 0
3 4 -5 0
8 7 0
8 7 0
-7 -8 0
9 -6 0
9 8 0
6 -8 -9 0
11 -10 0
11 -2 0
10 2 -11 0
-13 11 0
-13 -12 0
-11 12 13 0
14 -4 0
14 -7 0
4 7 -14 0
-10 -14 -15 0
10 14 -15 0
-10 14 15 0
10 -14 15 0
16 -13 0
16 -15 0
13 15 -16 0
17 -9 0
17 -16 0
9 16 -17 0
18 11 0
18 15 0
-11 -15 -18 0
-19 11 0
-19 -6 0
-11 6 19 0
-19 20 -21 0
19 -20 -21 0
-19 -20 21 0
19 20 21 0
18 -21 -22 0
-18 21 -22 0
18 21 22 0
-18 -21 22 0
-23 -17 0
-23 22 0
17 -22 23 0
-5 23 -24 0
5 -23 -24 0
-5 -23 24 0
5 23 24 0
25 10 0
25 -10 0
26 -2 0
26 25 0
2 -25 -26 0
27 -26 0
27 -13 0
26 13 -27 0
28 -10 0
28 11 0
10 -11 -28 0
27 28 -29 0
-27 -28 -29 0
27 -28 29 0
-27 28 29 0
24 -29 -30 0
-24 29 -30 0
24 29 30 0
-24 -29 30 0
25 27 -5 22 14 0
-25 21 9 15 0
9 -3 -14 -11 10 0
-7 24 10 -20 -3 0
-25 -14 -9 26 -3 22 -7 0
15 -16 10 -23 -30 -24 0
-2 30 17 0
30 0
