sat_easy_train/easy_1819_UNSAT.dimacs
p cnf 135 452
1 -2 -3 0
-1 2 -3 0
1 2 3 0
-1 -2 3 0
5 -3 0
5 4 0
3 -4 -5 0
5 6 -7 0
-5 -6 -7 0
5 -6 7 0
-5 6 7 0
-10 8 0
-10 9 0
-8 -9 10 0
-11 -10 0
-11 -1 0
10 1 11 0
-12 -11 0
-12 2 0
11 -2 12 0
-2 13 -14 0
2 -13 -14 0
-2 -13 14 0
2 13 14 0
-17 6 0
-17 -14 0
-6 14 17 0
16 -17 -18 0
-16 17 -18 0
16 17 18 0
-16 -17 18 0
19 -15 0
19 18 0
15 -18 -19 0
20 14 0
20 -19 0
-14 19 -20 0
21 3 0
21 -20 0
-3 20 -21 0
12 21 -22 0
-12 -21 -22 0
12 -21 22 0
-12 21 22 0
-26 24 0
-26 -25 0
-24 25 26 0
27 -15 0
27 26 0
15 -26 -27 0
-28 -27 0
-28 19 0
27 -19 28 0
-23 28 -29 0
23 -28 -29 0
-23 -28 29 0
23 28 29 0
-30 -22 0
-30 -29 0
22 29 30 0
7 30 -31 0
-7 -30 -31 0
7 -30 31 0
-7 30 31 0
33 15 0
33 11 0
-15 -11 -33 0
34 -18 0
34 8 0
18 -8 -34 0
35 -24 0
35 34 0
24 -34 -35 0
-33 35 -36 0
33 -35 -36 0
-33 -35 36 0
33 35 36 0
-37 -1 0
-37 15 0
1 -15 37 0
36 -37 -38 0
-36 37 -38 0
36 37 38 0
-36 -37 38 0
-39 32 0
-39 38 0
-32 -38 39 0
40 25 0
40 20 0
-25 -20 -40 0
-41 39 0
-41 -40 0
-39 40 41 0
43 -13 0
43 42 0
13 -42 -43 0
44 42 0
44 -43 0
-42 43 -44 0
45 -44 0
45 44 0
-41 -45 -46 0
41 45 -46 0
-41 45 46 0
41 -45 46 0
26 19 -47 0
-26 -19 -47 0
26 -19 47 0
-26 19 47 0
42 13 -48 0
-42 -13 -48 0
42 -13 48 0
-42 13 48 0
-48 -2 -49 0
48 2 -49 0
-48 2 49 0
48 -2 49 0
47 49 -50 0
-47 -49 -50 0
47 -49 50 0
-47 49 50 0
51 -11 0
51 -50 0
11 50 -51 0
-52 2 0
-52 48 0
-2 -48 52 0
52 4 -53 0
-52 -4 -53 0
52 -4 53 0
-52 4 53 0
55 -53 0
55 54 0
53 -54 -55 0
56 21 0
56 4 0
-21 -4 -56 0
57 55 0
57 56 0
-55 -56 -57 0
-58 51 0
-58 57 0
-51 -57 58 0
59 46 0
59 -58 0
-46 58 -59 0
-14 13 -60 0
14 -13 -60 0
-14 -13 60 0
14 13 60 0
-60 -43 -61 0
60 43 -61 0
-60 43 61 0
60 -43 61 0
62 11 0
62 -3 0
-11 3 -62 0
-62 -16 -63 0
62 16 -63 0
-62 16 63 0
62 -16 63 0
23 3 -64 0
-23 -3 -64 0
23 -3 64 0
-23 3 64 0
-65 63 0
-65 -64 0
-63 64 65 0
-66 20 0
-66 -11 0
-20 11 66 0
67 65 0
67 -66 0
-65 66 -67 0
-68 61 0
-68 -67 0
-61 67 68 0
-69 -25 0
-69 -35 0
25 35 69 0
-70 -48 0
-70 6 0
48 -6 70 0
-71 -70 0
-71 26 0
70 -26 71 0
-72 -69 0
-72 71 0
69 -71 72 0
68 -72 -73 0
-68 72 -73 0
68 72 73 0
-68 -72 73 0
-74 59 0
-74 73 0
-59 -73 74 0
-31 74 -75 0
31 -74 -75 0
-31 -74 75 0
31 74 75 0
77 -11 0
77 -76 0
11 76 -77 0
-13 -64 -78 0
13 64 -78 0
-13 64 78 0
13 -64 78 0
79 77 0
79 -78 0
-77 78 -79 0
80 -62 0
80 60 0
62 -60 -80 0
26 -10 -81 0
-26 10 -81 0
26 10 81 0
-26 -10 81 0
81 -76 -82 0
-81 76 -82 0
81 76 82 0
-81 -76 82 0
-83 -80 0
-83 -82 0
80 82 83 0
-84 -15 0
-84 11 0
15 -11 84 0
85 -12 0
85 -1 0
12 1 -85 0
-86 84 0
-86 85 0
-84 -85 86 0
87 -83 0
87 86 0
83 -86 -87 0
79 87 -88 0
-79 -87 -88 0
79 -87 88 0
-79 87 88 0
-89 -27 0
-89 2 0
27 -2 89 0
-26 -8 -90 0
26 8 -90 0
-26 8 90 0
26 -8 90 0
91 -81 0
91 90 0
81 -90 -91 0
-92 91 0
-92 -70 0
-91 70 92 0
-93 37 0
-93 92 0
-37 -92 93 0
94 89 0
94 93 0
-89 -93 -94 0
95 88 0
95 -94 0
-88 94 -95 0
96 -21 0
96 -34 0
21 34 -96 0
1 -96 -97 0
-1 96 -97 0
1 96 97 0
-1 -96 97 0
-98 -97 0
-98 -92 0
97 92 98 0
99 -5 0
99 82 0
5 -82 -99 0
-100 -14 0
-100 -99 0
14 99 100 0
-101 -92 0
-101 -19 0
92 19 101 0
-102 -100 0
-102 -101 0
100 101 102 0
103 98 0
103 102 0
-98 -102 -103 0
-104 95 0
-104 103 0
-95 -103 104 0
105 80 0
105 -9 0
-80 9 -105 0
54 105 -106 0
-54 -105 -106 0
54 -105 106 0
-54 105 106 0
3 49 -107 0
-3 -49 -107 0
3 -49 107 0
-3 49 107 0
17 -107 -108 0
-17 107 -108 0
17 107 108 0
-17 -107 108 0
38 -21 -109 0
-38 21 -109 0
38 21 109 0
-38 -21 109 0
110 -108 0
110 109 0
108 -109 -110 0
111 -106 0
111 110 0
106 -110 -111 0
112 104 0
112 -111 0
-104 111 -112 0
-113 -5 0
-113 2 0
5 -2 113 0
-114 -14 0
-114 -25 0
14 25 114 0
-115 -113 0
-115 114 0
113 -114 115 0
116 -14 0
116 115 0
14 -115 -116 0
117 1 0
117 33 0
-1 -33 -117 0
118 35 0
118 117 0
-35 -117 -118 0
119 44 0
119 -118 0
-44 118 -119 0
-36 11 -120 0
36 -11 -120 0
-36 -11 120 0
36 11 120 0
16 120 -121 0
-16 -120 -121 0
16 -120 121 0
-16 120 121 0
-2 121 -122 0
2 -121 -122 0
-2 -121 122 0
2 121 122 0
123 -48 0
123 -13 0
48 13 -123 0
124 -122 0
124 123 0
122 -123 -124 0
125 -119 0
125 -124 0
119 124 -125 0
126 34 0
126 76 0
-34 -76 -126 0
-21 -126 -127 0
21 126 -127 0
-21 126 127 0
21 -126 127 0
-128 -125 0
-128 -127 0
125 127 128 0
129 -107 0
129 108 0
107 -108 -129 0
130 128 0
130 129 0
-128 -129 -130 0
-131 -105 0
-131 -38 0
105 38 131 0
132 130 0
132 131 0
-130 -131 -132 0
-133 -116 0
-133 132 0
116 -132 133 0
-112 133 -134 0
112 -133 -134 0
-112 -133 134 0
112 133 134 0
135 -75 0
135 134 0
75 -134 -135 0
113 97 93 35 0
-47 -21 0
-33 -118 131 -24 -9 14 0
-107 110 83 -48 -102 0
-78 100 -86 23 -103 -89 0
-51 -23 37 0
44 -68 22 -11 0
-88 -112 0
81 22 -46 -11 98 0
-66 1 -69 129 42 0
15 35 -19 66 37 0
-70 -63 -132 0
-37 -74 0
132 -44 -69 -1 -54 67 0
31 122 -80 123 5 14 0
18 -132 -38 -92 0
-117 77 82 111 -52 0
71 -61 106 -42 119 -1 0
-28 66 -24 -3 76 -115 0
-11 -63 0
117 77 26 -105 0
-64 47 134 -102 -123 -81 0
-114 16 56 53 44 37 0
100 65 -17 0
53 5 -42 100 114 0
-13 -21 -5 -107 0
-127 19 29 -28 17 30 0
-107 -2 -108 42 20 0
-72 -95 -25 76 0
-84 -16 62 -105 1 0
-120 125 -99 -62 75 0
121 66 -36 -50 -42 0
23 37 -2 -105 0
84 23 65 -29 67 -20 0
-97 -121 11 -55 0
-19 63 0
-44 -59 1 4 0
3 88 6 0
72 110 0
16 -60 0
14 -72 -3 61 0
-89 55 0
-20 -108 -60 -2 1 0
-74 108 54 0
-29 62 -76 -52 0
-87 16 43 76 -11 -60 0
103 122 -128 108 36 0
-64 98 -23 0
-72 127 124 43 14 0
133 -56 0
134 3 -70 44 19 0
67 -99 27 -2 -28 0
98 -41 106 -77 -118 0
-111 -67 -6 103 0
-102 125 0
-58 -95 -31 -107 27 12 0
76 -86 -67 5 0
69 40 0
-125 2 -95 0
135 0
